200
150
100
99
99
99
98
98
98
98
98
97
97
96
96
95
94
94
94
93
93
93
92
92
91
91
91
91
90
90
89
88
88
88
87
87
87
86
86
86
85
85
84
84
83
82
80
80
80
79
79
79
79
78
78
77
77
77
76
74
74
73
73
73
72
71
71
71
70
70
70
70
68
68
68
67
67
67
67
66
66
65
64
64
63
63
61
61
60
60
60
60
59
59
58
58
58
58
57
57
57
56
56
55
54
51
51
50
49
48
48
48
47
45
45
45
44
44
44
44
43
43
43
43
43
43
42
42
42
42
41
41
40
39
39
39
39
38
38
38
38
38
38
38
38
37
37
37
36
36
35
35
35
35
34
34
34
34
34
33
33
33
33
32
32
31
31
31
30
30
29
28
28
28
27
25
25
24
24
24
24
24
23
23
23
23
23
22
22
22
22
22
21
21
21
21
21
21
21
20
20
20
